223
125
172
184
205
164
236
175
264
171
224
223
169
161
152
137
309
149
167
177
170
181
202
172
145
141
112
159
113
195
176
231
93
275
168
190
275
224
177
161
168
167
206
282
157
205
123
195
179
205
209
163
169
186
191
81
222
80
215
158
99
145
177
184
278
241
119
174
189
260
120
144
82
151
228
232
206
143
101
136
154
95
104
193
125
137
236
149
206
238
108
148
223
172
190
234
96
141
139
169
